(set-logic UFDT)
(declare-datatypes ((nat 0)) (((zero) (s (s0 nat)))))
(declare-fun add (nat nat) nat)
(injective add (true true))
(declare-fun leq (nat nat) Bool)
(assert (forall ((y nat)) (= (add zero y) y)))
(assert (forall ((x nat) (y nat)) (= (add (s x) y) (s (add x y)))))
(assert (forall ((y nat)) (leq zero y)))
(assert (forall ((x nat)) (not (leq (s x) zero))))
(assert (forall ((x nat) (y nat)) (= (leq (s x) (s y)) (leq x y))))
(assert (not (forall ((v0 nat) (v1 nat) (v2 nat) (v3 nat) (v4 nat) (v5 nat) (v6 nat) (v7 nat) (v8 nat) (v9 nat)) (= (add (add (add (s (s (s (s (add v6 (s v7)))))) (s (s v0))) (s (s (s (s v5))))) (s (add (add (s v3) (s (add (s v9) v1))) (add (add (s (s v6)) (s v8)) (add (s v2) v4))))) (s (add (s (add (s v1) (s (s (s (s (s v9))))))) (s (add (s (s (s (add (add v6 v5) v7)))) (add (add (add (s (s v2)) (s (add (s v3) v8))) (s (s (add v0 (s v4))))) v6)))))))))
(check-sat)
